<number of tasks>
50

<cycle time>
1000

<order strength>
0.205


<task times>
1 530
2 359
3 413
4 253
5 437
6 287
7 586
8 646
9 615
10 464
11 280
12 307
13 405
14 339
15 475
16 423
17 504
18 360
19 211
20 258
21 510
22 501
23 512
24 484
25 471
26 442
27 626
28 650
29 608
30 549
31 356
32 515
33 870
34 567
35 414
36 492
37 323
38 559
39 592
40 614
41 519
42 691
43 413
44 551
45 582
46 214
47 616
48 486
49 544
50 548

<precedence relations>
1,5
2,6
4,7
4,8
4,9
4,10
5,11
6,16
7,12
7,14
7,15
8,13
8,17
8,18
11,19
12,19
13,19
14,19
15,20
16,21
16,23
16,27
17,24
17,25
18,22
18,23
18,26
19,28
19,29
19,30
19,31
19,32
19,33
20,35
21,34
23,36
28,43
30,40
31,39
32,41
34,37
35,42
36,38
37,45
38,44
40,46
42,47
42,48
44,49
45,50

<end>
